54939
43 3 1096
3 6 385
6 28 404
28 55 487
55 49 711
49 26 560
26 54 967
54 34 401
34 53 396
53 23 388
23 21 176
21 22 726
22 10 117
10 9 803
9 14 471
14 12 816
12 47 1082
47 30 944
30 4 380
4 18 606
18 42 2089
42 33 4807
33 1 7621
1 27 4123
27 31 4460
31 25 299
25 11 545
11 45 436
45 2 787
2 52 598
52 15 631
15 16 556
16 39 451
39 36 503
36 46 402
46 29 1012
29 17 1002
17 48 415
48 19 897
19 41 1369
41 32 362
32 44 676
44 8 383
8 38 368
38 50 1180
50 20 763
20 24 740
24 35 296
35 5 323
5 13 723
13 51 644
51 37 590
37 7 517
7 40 1176
40 43 1279
